1787, 0, 0, 35, 1
1788, 0, 1, 45, 2
1789, 0, 2, 83, 0
1790, 0, 3, 69, 3
1791, 1, 0, 69, 1
1792, 1, 1, 76, 2
1793, 1, 2, 51, 0
1794, 1, 3, 58, 3
1795, 2, 0, 78, 0
1796, 2, 1, 60, 1
1797, 2, 2, 84, 3
1798, 2, 3, 78, 2
1799, 3, 0, 96, 2
1800, 3, 1, 88, 3
1801, 3, 2, 94, 0
1802, 3, 3, 92, 1
